c Sudoku solution
p cnf 729 0
131 0
188 0
264 0
275 0
335 0
357 0
432 0
447 0
453 0
572 0
613 0
625 0
638 0
651 0
712 0
733 0
755 0
766 0
819 0
915 0
891 0
885 0
936 0
876 0
959 0
977 0
727 0
921 0
834 0
828 0
741 0
944 0
867 0
843 0
852 0
968 0
281 0
361 0
163 0
145 0
554 0
156 0
258 0
318 0
548 0
646 0
662 0
471 0
498 0
595 0
583 0
486 0
511 0
537 0
465 0
569 0
414 0
429 0
526 0
117 0
216 0
239 0
297 0
223 0
242 0
349 0
373 0
778 0
982 0
993 0
384 0
179 0
396 0
192 0
124 0
322 0
674 0
789 0
794 0
687 0
699 0
